n_potions = 66;
alchemy = [3, 2, 4, 3, 3, 2, 3, 4, 1, 2, 1, 3, 1, 2, 2, 5, 3, 1, 1, 5, 4, 3, 1, 2, 4, 1, 4, 5, 4, 2, 2, 4, 4, 2, 5, 3, 5, 4, 1, 5, 5, 1, 3, 3, 4, 5, 4, 4, 2, 5, 3, 3, 5, 2, 3, 1, 4, 3, 3, 4, 4, 1, 4, 5, 1, 5];
n_days = 12;
min_potions = 5;
max_potions = 7;
min_alchemists = 5;
max_alchemists = 35;
prereqs = [|7,1
|8,2
|8,6
|10,5
|11,5
|11,6
|12,7
|13,8
|13,11
|17,10
|17,11
|18,10
|18,11
|19,11
|20,9
|21,10
|23,17
|24,13
|26,13
|26,23
|30,9
|32,9
|34,17
|37,20
|37,30
|38,33
|41,9
|41,17
|43,20
|44,16
|45,38
|46,37
|47,42
|48,34
|48,35
|49,30
|49,32
|50,43
|51,33
|53,47
|54,50
|55,43
|57,39
|57,34
|58,28
|59,55
|61,48
|61,55
|62,31
|63,48
|];
